Silicon
1.0
5.0 0.0 0.0
0.0 5.0 0.0
0.0 0.0 5.0
Si 
8 
direct
0.25 0.75 0.25 Si
0.0 0.0 0.5 Si
0.25 0.25 0.75 Si
0.0 0.5 0.0 Si
0.75 0.75 0.75 Si
0.5 0.0 0.0 Si
0.75 0.25 0.25 Si
0.5 0.5 0.5 Si
